<number of tasks>
58

<cycle time>
65

<task times>
1 10
2 53
3 41
4 36
5 35
6 17
7 34
8 23
9 14
10 52
11 33
12 34
13 12
14 52
15 12
16 33
17 44
18 7
19 15
20 13
21 29
22 37
23 43
24 23
25 24
26 9
27 16
28 12
29 26
30 22
31 51
32 47
33 34
34 23
35 12
36 52
37 12
38 33
39 44
40 7
41 15
42 13
43 29
44 37
45 43
46 23
47 24
48 9
49 16
50 12
51 26
52 12
53 52
54 12
55 33
56 44
57 7
58 15

<precedence relations>
1,9
2,25
3,21
3,22
4,10
5,36
6,23
6,24
7,43
8,44
9,11
11,13
11,14
11,15
12,17
13,17
14,17
15,17
16,18
17,20
18,19
19,23
20,21
20,25
21,26
21,44
22,27
23,31
24,31
25,38
26,29
27,30
28,32
28,33
29,31
30,34
31,36
32,45
33,35
34,36
35,43
36,37
36,38
37,39
37,40
37,41
38,52
39,43
40,43
41,42
42,43
43,45
44,45
45,46
45,48
45,49
46,47
46,50
47,51
48,55
49,58
50,58
51,52
52,53
53,54
54,55
54,56
55,57
56,57
57,58

<setup times forward>
1,2:5
1,3:10
1,4:3
1,5:6
1,6:3
1,7:12
1,8:10
1,10:9
1,12:3
1,16:1
1,18:4
1,19:12
1,22:9
1,23:2
1,24:1
1,27:12
1,28:5
1,30:2
1,32:12
1,33:4
1,34:3
1,35:7
2,1:5
2,3:5
2,4:8
2,5:11
2,6:2
2,7:17
2,8:5
2,9:5
2,10:14
2,11:5
2,12:2
2,13:2
2,14:9
2,15:9
2,16:6
2,17:3
2,18:9
2,19:17
2,20:3
2,21:11
2,22:14
2,23:7
2,24:6
2,25:9
2,26:6
2,27:17
2,29:14
2,30:7
2,31:2
2,32:17
2,33:9
2,34:2
2,35:2
2,36:19
2,37:19
2,39:4
2,40:4
2,41:17
2,42:4
2,43:8
2,44:2
2,45:3
2,46:2
2,47:2
2,48:10
2,49:3
2,50:14
2,51:2
3,1:10
3,2:5
3,4:13
3,5:16
3,6:7
3,7:22
3,9:10
3,10:19
3,11:10
3,12:7
3,13:7
3,14:14
3,15:14
3,16:11
3,17:8
3,18:14
3,19:22
3,20:8
3,21:16
3,22:19
3,23:12
3,24:11
3,25:14
3,28:5
3,32:22
3,33:14
3,35:3
4,1:3
4,2:8
4,3:13
4,5:3
4,6:6
4,7:9
4,8:13
4,9:3
4,10:6
4,11:3
4,12:6
4,13:6
4,14:1
4,15:1
4,16:2
4,17:5
4,18:1
4,19:9
4,20:5
4,21:3
4,22:6
4,23:1
4,24:2
4,25:1
4,26:2
4,27:9
4,28:8
4,29:6
4,30:1
4,31:10
4,32:9
4,33:1
4,34:6
4,35:10
4,36:11
4,37:11
4,38:10
4,39:12
4,40:12
4,41:9
4,42:12
4,44:6
4,45:5
4,46:10
4,47:10
4,48:2
4,49:5
4,50:6
4,51:10
4,52:9
4,53:9
4,55:2
4,57:2
4,58:2
5,1:6
5,2:11
5,3:16
5,4:3
5,6:9
5,7:6
5,8:16
5,9:6
5,10:3
5,11:6
5,12:9
5,13:9
5,14:2
5,15:2
5,16:5
5,17:8
5,18:2
5,19:6
5,20:8
5,22:3
5,23:4
5,24:5
5,25:2
5,26:5
5,27:6
5,28:11
5,29:3
5,30:4
5,31:13
5,32:6
5,33:2
5,34:9
5,35:13
5,36:8
5,44:9
6,1:3
6,2:2
6,3:7
6,4:6
6,5:9
6,7:15
6,8:7
6,9:3
6,10:12
6,11:3
6,14:7
6,15:7
6,16:4
6,17:1
6,18:7
6,19:15
6,20:1
6,21:9
6,22:12
6,23:5
6,24:4
6,25:7
6,26:4
6,27:15
6,28:2
6,29:12
6,30:5
6,32:15
6,33:7
6,35:4
7,1:12
7,2:17
7,3:22
7,4:9
7,5:6
7,6:15
7,8:22
7,9:12
7,10:3
7,11:12
7,12:15
7,13:15
7,14:8
7,15:8
7,16:11
7,17:14
7,18:8
7,20:14
7,21:6
7,22:3
7,23:10
7,24:11
7,25:8
7,26:11
7,28:17
7,29:3
7,30:10
7,31:19
7,33:8
7,34:15
7,35:19
7,36:2
7,37:2
7,38:19
7,39:21
7,40:21
7,42:21
7,43:9
7,44:15
8,1:10
8,2:5
8,4:13
8,5:16
8,6:7
8,7:22
8,9:10
8,10:19
8,11:10
8,12:7
8,13:7
8,14:14
8,15:14
8,16:11
8,17:8
8,18:14
8,19:22
8,20:8
8,21:16
8,22:19
8,23:12
8,24:11
8,25:14
8,26:11
8,27:22
8,28:5
8,29:19
8,30:12
8,31:3
8,32:22
8,33:14
8,34:7
8,35:3
8,36:24
8,37:24
8,38:3
8,39:1
8,40:1
8,41:22
8,42:1
8,43:13
8,44:7
9,2:5
9,3:10
9,4:3
9,5:6
9,6:3
9,7:12
9,8:10
9,10:9
9,12:3
9,16:1
9,18:4
9,19:12
9,22:9
9,23:2
9,24:1
9,27:12
9,28:5
9,30:2
9,32:12
9,33:4
9,34:3
9,35:7
10,1:9
10,2:14
10,3:19
10,5:3
10,6:12
10,7:3
10,8:19
10,9:9
10,11:9
10,12:12
10,13:12
10,14:5
10,15:5
10,16:8
10,17:11
10,18:5
10,19:3
10,20:11
10,21:3
10,23:7
10,24:8
10,25:5
10,26:8
10,27:3
10,28:14
10,30:7
10,31:16
10,32:3
10,33:5
10,34:12
10,35:16
10,36:5
10,37:5
10,38:16
10,39:18
10,40:18
10,41:3
10,42:18
10,43:6
10,44:12
10,45:11
10,46:16
10,47:16
10,48:4
10,49:11
10,51:16
10,52:15
10,53:15
10,54:6
10,55:4
10,56:6
10,57:4
10,58:4
11,2:5
11,3:10
11,4:3
11,5:6
11,6:3
11,7:12
11,8:10
11,10:9
11,12:3
11,13:3
11,14:4
11,15:4
11,16:1
11,18:4
11,19:12
11,22:9
11,23:2
11,24:1
11,27:12
11,28:5
11,30:2
11,32:12
11,33:4
11,34:3
11,35:7
12,1:3
12,2:2
12,3:7
12,4:6
12,5:9
12,7:15
12,8:7
12,9:3
12,10:12
12,11:3
12,14:7
12,15:7
12,16:4
12,17:1
12,18:7
12,19:15
12,22:12
12,23:5
12,24:4
12,27:15
12,28:2
12,30:5
12,32:15
12,33:7
12,35:4
13,2:2
13,3:7
13,4:6
13,5:9
13,7:15
13,8:7
13,10:12
13,14:7
13,15:7
13,16:4
13,17:1
13,18:7
13,19:15
13,22:12
13,23:5
13,24:4
13,27:15
13,28:2
13,30:5
13,32:15
13,33:7
13,35:4
14,2:9
14,3:14
14,4:1
14,5:2
14,6:7
14,7:8
14,8:14
14,10:5
14,12:7
14,13:7
14,16:3
14,17:6
14,19:8
14,22:5
14,23:2
14,24:3
14,27:8
14,28:9
14,30:2
14,32:8
14,34:7
14,35:11
15,2:9
15,3:14
15,4:1
15,5:2
15,6:7
15,7:8
15,8:14
15,10:5
15,12:7
15,13:7
15,16:3
15,17:6
15,19:8
15,22:5
15,23:2
15,24:3
15,27:8
15,28:9
15,30:2
15,32:8
15,34:7
15,35:11
16,1:1
16,2:6
16,3:11
16,4:2
16,5:5
16,6:4
16,7:11
16,8:11
16,9:1
16,10:8
16,11:1
16,12:4
16,13:4
16,14:3
16,15:3
16,17:3
16,18:3
16,20:3
16,21:5
16,22:8
16,25:3
16,27:11
16,28:6
16,29:8
16,30:1
16,32:11
16,33:3
16,34:4
16,35:8
16,44:4
17,2:3
17,3:8
17,4:5
17,5:8
17,6:1
17,7:14
17,8:8
17,10:11
17,16:3
17,18:6
17,19:14
17,22:11
17,23:4
17,24:3
17,27:14
17,28:3
17,30:4
17,32:14
17,33:6
17,34:1
17,35:5
18,1:4
18,2:9
18,3:14
18,4:1
18,5:2
18,6:7
18,7:8
18,8:14
18,9:4
18,10:5
18,11:4
18,12:7
18,13:7
18,17:6
18,19:8
18,20:6
18,21:2
18,22:5
18,24:3
18,26:3
18,27:8
18,28:9
18,29:5
18,30:2
18,32:8
18,34:7
18,35:11
18,44:7
19,1:12
19,2:17
19,3:22
19,4:9
19,5:6
19,6:15
19,8:22
19,9:12
19,10:3
19,11:12
19,12:15
19,13:15
19,14:8
19,15:8
19,17:14
19,20:14
19,21:6
19,22:3
19,23:10
19,24:11
19,25:8
19,26:11
19,28:17
19,29:3
19,30:10
19,33:8
19,34:15
19,35:19
19,44:15
20,2:3
20,3:8
20,4:5
20,5:8
20,6:1
20,7:14
20,8:8
20,10:11
20,16:3
20,18:6
20,19:14
20,21:8
20,22:11
20,23:4
20,24:3
20,25:6
20,27:14
20,28:3
20,30:4
20,32:14
20,33:6
20,34:1
20,35:5
21,2:11
21,4:3
21,6:9
21,7:6
21,8:16
21,10:3
21,16:5
21,18:2
21,19:6
21,22:3
21,23:4
21,24:5
21,25:2
21,26:5
21,27:6
21,28:11
21,30:4
21,32:6
21,33:2
21,34:9
21,35:13
21,44:9
22,1:9
22,2:14
22,4:6
22,5:3
22,6:12
22,7:3
22,8:19
22,9:9
22,11:9
22,12:12
22,13:12
22,14:5
22,15:5
22,16:8
22,17:11
22,18:5
22,19:3
22,20:11
22,21:3
22,23:7
22,24:8
22,25:5
22,26:8
22,27:3
22,28:14
22,31:16
22,32:3
22,33:5
22,35:16
22,44:12
23,1:2
23,2:7
23,3:12
23,4:1
23,5:4
23,7:10
23,8:12
23,9:2
23,10:7
23,11:2
23,12:5
23,13:5
23,14:2
23,15:2
23,17:4
23,20:4
23,21:4
23,22:7
23,24:1
23,25:2
23,26:1
23,27:10
23,28:7
23,29:7
23,31:9
23,32:10
23,33:2
23,34:5
23,35:9
23,44:5
24,1:1
24,2:6
24,3:11
24,4:2
24,5:5
24,7:11
24,8:11
24,9:1
24,10:8
24,11:1
24,12:4
24,13:4
24,14:3
24,15:3
24,17:3
24,18:3
24,19:11
24,20:3
24,21:5
24,22:8
24,23:1
24,25:3
24,27:11
24,28:6
24,29:8
24,30:1
24,31:8
24,32:11
24,33:3
24,34:4
24,35:8
24,44:4
25,3:14
25,4:1
25,5:2
25,6:7
25,7:8
25,8:14
25,10:5
25,16:3
25,19:8
25,21:2
25,22:5
25,23:2
25,24:3
25,26:3
25,27:8
25,28:9
25,29:5
25,30:2
25,31:11
25,32:8
25,34:7
25,35:11
25,36:10
25,37:10
25,38:11
25,39:13
25,40:13
25,41:8
25,42:13
25,43:1
25,44:7
25,45:6
25,46:11
25,47:11
25,48:1
25,49:6
25,50:5
25,51:11
26,2:6
26,4:2
26,5:5
26,6:4
26,7:11
26,8:11
26,10:8
26,18:3
26,19:11
26,22:8
26,23:1
26,25:3
26,27:11
26,28:6
26,29:8
26,30:1
26,32:11
26,33:3
26,34:4
26,35:8
26,44:4
27,1:12
27,2:17
27,4:9
27,5:6
27,6:15
27,8:22
27,9:12
27,10:3
27,11:12
27,12:15
27,13:15
27,14:8
27,15:8
27,16:11
27,17:14
27,18:8
27,20:14
27,21:6
27,23:10
27,24:11
27,25:8
27,26:11
27,28:17
27,29:3
27,30:10
27,31:19
27,33:8
27,35:19
27,44:15
28,1:5
28,3:5
28,4:8
28,5:11
28,6:2
28,7:17
28,8:5
28,9:5
28,10:14
28,11:5
28,12:2
28,13:2
28,14:9
28,15:9
28,16:6
28,17:3
28,18:9
28,19:17
28,20:3
28,21:11
28,22:14
28,23:7
28,24:6
28,25:9
28,26:6
28,27:17
28,29:14
28,30:7
28,31:2
28,32:17
28,33:9
28,34:2
28,36:19
28,37:19
28,38:2
28,39:4
28,40:4
28,41:17
28,42:4
28,44:2
29,2:14
29,4:6
29,5:3
29,6:12
29,7:3
29,8:19
29,16:8
29,18:5
29,19:3
29,23:7
29,24:8
29,25:5
29,27:3
29,28:14
29,30:7
29,31:16
29,32:3
29,33:5
29,34:12
29,35:16
29,44:12
30,1:2
30,2:7
30,4:1
30,5:4
30,6:5
30,7:10
30,8:12
30,9:2
30,10:7
30,11:2
30,12:5
30,13:5
30,14:2
30,15:2
30,16:1
30,17:4
30,18:2
30,19:10
30,20:4
30,21:4
30,24:1
30,25:2
30,26:1
30,28:7
30,29:7
30,31:9
30,32:10
30,33:2
30,34:5
30,35:9
30,44:5
31,2:2
31,4:10
31,5:13
31,7:19
31,8:3
31,10:16
31,22:16
31,25:11
31,27:19
31,28:2
31,30:9
31,32:19
31,33:11
31,34:4
31,36:21
31,44:4
32,1:12
32,2:17
32,3:22
32,4:9
32,5:6
32,6:15
32,8:22
32,9:12
32,10:3
32,11:12
32,12:15
32,13:15
32,14:8
32,15:8
32,16:11
32,17:14
32,18:8
32,20:14
32,21:6
32,22:3
32,23:10
32,24:11
32,25:8
32,26:11
32,29:3
32,30:10
32,31:19
32,33:8
32,34:15
32,35:19
32,36:2
32,37:2
32,38:19
32,39:21
32,40:21
32,42:21
32,43:9
32,44:15
32,45:14
33,1:4
33,2:9
33,3:14
33,4:1
33,5:2
33,6:7
33,7:8
33,8:14
33,9:4
33,10:5
33,11:4
33,12:7
33,13:7
33,16:3
33,17:6
33,19:8
33,20:6
33,21:2
33,22:5
33,23:2
33,24:3
33,26:3
33,27:8
33,29:5
33,30:2
33,31:11
33,32:8
33,34:7
33,35:11
33,36:10
33,37:10
33,38:11
33,39:13
33,40:13
33,41:8
33,42:13
33,44:7
34,1:3
34,2:2
34,4:6
34,5:9
34,7:15
34,8:7
34,9:3
34,10:12
34,11:3
34,14:7
34,15:7
34,16:4
34,17:1
34,18:7
34,19:15
34,20:1
34,21:9
34,23:5
34,24:4
34,25:7
34,26:4
34,28:2
34,29:12
34,31:4
34,32:15
34,33:7
34,35:4
34,36:17
35,1:7
35,2:2
35,3:3
35,4:10
35,5:13
35,6:4
35,7:19
35,8:3
35,9:7
35,10:16
35,11:7
35,12:4
35,13:4
35,14:11
35,15:11
35,16:8
35,17:5
35,18:11
35,19:19
35,20:5
35,21:13
35,22:16
35,23:9
35,24:8
35,25:11
35,26:8
35,27:19
35,29:16
35,30:9
35,32:19
35,34:4
35,36:21
35,37:21
35,39:2
35,40:2
35,41:19
35,42:2
35,43:10
35,44:4
36,2:19
36,4:11
36,7:2
36,8:24
36,10:5
36,25:10
36,28:19
36,32:2
36,33:10
36,35:21
36,38:21
36,44:17
37,2:19
37,4:11
37,7:2
37,8:24
37,10:5
37,25:10
37,28:19
37,32:2
37,33:10
37,35:21
37,38:21
37,39:23
37,40:23
37,41:2
37,44:17
38,4:10
38,7:19
38,8:3
38,10:16
38,28:2
38,32:19
38,33:11
38,37:21
38,39:2
38,40:2
38,41:19
38,42:2
38,43:10
38,44:4
38,45:5
38,48:12
38,49:5
38,50:16
38,52:1
39,2:4
39,4:12
39,7:21
39,8:1
39,10:18
39,25:13
39,28:4
39,32:21
39,33:13
39,35:2
39,38:2
39,41:21
39,43:12
39,44:6
40,2:4
40,4:12
40,7:21
40,8:1
40,10:18
40,25:13
40,28:4
40,32:21
40,33:13
40,35:2
40,38:2
40,41:21
40,43:12
40,44:6
41,2:17
41,4:9
41,8:22
41,10:3
41,25:8
41,28:17
41,33:8
41,35:19
41,38:19
41,39:21
41,40:21
41,42:21
41,44:15
42,2:4
42,4:12
42,7:21
42,8:1
42,10:18
42,25:13
42,28:4
42,32:21
42,33:13
42,35:2
42,38:2
42,43:12
42,44:6
43,2:8
43,8:13
43,10:6
43,25:1
43,32:9
43,38:10
43,44:6
43,45:5
44,2:2
44,4:6
44,5:9
44,7:15
44,10:12
44,16:4
44,18:7
44,19:15
44,22:12
44,23:5
44,24:4
44,25:7
44,26:4
44,27:15
44,28:2
44,29:12
44,30:5
44,31:4
44,32:15
44,33:7
44,35:4
44,36:17
44,37:17
44,38:4
44,39:6
44,40:6
44,41:15
44,42:6
44,43:6
44,45:1
45,2:3
45,4:5
45,10:11
45,25:6
45,38:5
45,46:5
45,48:7
46,2:2
46,4:10
46,10:16
46,25:11
46,48:12
46,49:5
46,50:16
47,2:2
47,4:10
47,10:16
47,25:11
47,48:12
47,49:5
47,50:16
48,2:10
48,4:2
48,10:4
48,25:1
48,38:12
48,46:12
48,47:12
48,49:7
48,50:4
48,51:12
48,52:11
48,53:11
48,54:2
48,56:2
49,2:3
49,4:5
49,10:11
49,25:6
49,38:5
49,46:5
49,47:5
49,48:7
49,50:11
49,51:5
49,52:4
49,53:4
49,54:5
49,55:7
49,56:5
49,57:7
49,58:7
50,2:14
50,4:6
50,25:5
50,38:16
50,47:16
50,48:4
50,49:11
50,51:16
50,52:15
50,53:15
50,54:6
50,55:4
50,56:6
50,57:4
50,58:4
51,2:2
51,4:10
51,10:16
51,25:11
51,48:12
51,49:5
51,50:16
51,52:1
52,4:9
52,10:15
52,48:11
52,49:4
52,50:15
53,4:9
53,10:15
53,48:11
53,49:4
53,50:15
53,54:9
54,10:6
54,48:2
54,49:5
54,50:6
54,55:2
55,4:2
55,10:4
55,49:7
55,50:4
55,56:2
56,10:6
56,48:2
56,49:5
56,50:6
56,55:2
56,57:2
57,4:2
57,10:4
57,49:7
57,50:4
58,4:2
58,10:4

<setup times backward>
1,4:3
1,5:6
1,7:12
1,10:9
1,16:1
1,18:4
1,19:12
1,22:9
1,23:2
1,24:1
1,27:12
1,30:2
1,32:12
1,33:4
2,1:5
2,4:8
2,5:11
2,6:2
2,7:17
2,9:5
2,10:14
2,11:5
2,12:2
2,13:2
2,14:9
2,15:9
2,16:6
2,17:3
2,18:9
2,19:17
2,20:3
2,21:11
2,22:14
2,23:7
2,24:6
2,26:6
2,27:17
2,29:14
2,30:7
2,32:17
2,33:9
2,34:2
2,36:19
2,37:19
2,41:17
2,43:8
2,44:2
2,45:3
2,48:10
2,49:3
2,50:14
3,1:10
3,2:5
3,4:13
3,5:16
3,6:7
3,7:22
3,9:10
3,10:19
3,11:10
3,12:7
3,13:7
3,14:14
3,15:14
3,16:11
3,17:8
3,18:14
3,19:22
3,20:8
3,23:12
3,24:11
3,25:14
3,28:5
3,32:22
3,33:14
3,35:3
4,5:3
4,7:9
4,14:1
4,15:1
4,18:1
4,19:9
4,21:3
4,22:6
4,25:1
4,27:9
4,29:6
4,32:9
4,33:1
4,36:11
4,37:11
4,41:9
4,48:2
4,50:6
4,55:2
4,57:2
4,58:2
5,7:6
5,10:3
5,19:6
5,22:3
5,27:6
5,29:3
5,32:6
6,1:3
6,4:6
6,5:9
6,7:15
6,9:3
6,10:12
6,11:3
6,14:7
6,15:7
6,16:4
6,17:1
6,18:7
6,19:15
6,20:1
6,21:9
6,22:12
6,25:7
6,26:4
6,27:15
6,29:12
6,30:5
6,32:15
6,33:7
7,36:2
7,37:2
8,1:10
8,2:5
8,4:13
8,5:16
8,6:7
8,7:22
8,9:10
8,10:19
8,11:10
8,12:7
8,13:7
8,14:14
8,15:14
8,16:11
8,17:8
8,18:14
8,19:22
8,20:8
8,21:16
8,22:19
8,23:12
8,24:11
8,25:14
8,26:11
8,27:22
8,28:5
8,29:19
8,30:12
8,31:3
8,32:22
8,33:14
8,34:7
8,35:3
8,36:24
8,37:24
8,38:3
8,39:1
8,40:1
8,41:22
8,42:1
8,43:13
9,4:3
9,5:6
9,7:12
9,10:9
9,16:1
9,18:4
9,19:12
9,22:9
9,23:2
9,24:1
9,27:12
9,30:2
9,32:12
9,33:4
10,7:3
10,19:3
10,27:3
10,32:3
10,36:5
10,37:5
10,41:3
11,4:3
11,5:6
11,7:12
11,10:9
11,16:1
11,18:4
11,19:12
11,22:9
11,23:2
11,24:1
11,27:12
11,30:2
11,32:12
11,33:4
12,1:3
12,4:6
12,5:9
12,7:15
12,9:3
12,10:12
12,11:3
12,14:7
12,15:7
12,16:4
12,18:7
12,19:15
12,22:12
12,23:5
12,24:4
12,27:15
12,30:5
12,32:15
12,33:7
13,1:3
13,4:6
13,5:9
13,7:15
13,9:3
13,10:12
13,11:3
13,14:7
13,15:7
13,16:4
13,18:7
13,19:15
13,22:12
13,23:5
13,24:4
13,27:15
13,30:5
13,32:15
13,33:7
14,5:2
14,7:8
14,10:5
14,19:8
14,22:5
14,27:8
14,32:8
15,5:2
15,7:8
15,10:5
15,19:8
15,22:5
15,27:8
15,32:8
16,4:2
16,5:5
16,7:11
16,10:8
16,14:3
16,15:3
16,21:5
16,22:8
16,25:3
16,27:11
16,29:8
16,30:1
16,32:11
16,33:3
17,1:2
17,4:5
17,5:8
17,7:14
17,9:2
17,10:11
17,11:2
17,14:6
17,15:6
17,16:3
17,18:6
17,19:14
17,22:11
17,23:4
17,24:3
17,27:14
17,30:4
17,32:14
17,33:6
18,5:2
18,7:8
18,10:5
18,21:2
18,22:5
18,27:8
18,29:5
18,32:8
20,1:2
20,4:5
20,5:8
20,7:14
20,9:2
20,10:11
20,11:2
20,14:6
20,15:6
20,16:3
20,18:6
20,19:14
20,22:11
20,23:4
20,24:3
20,27:14
20,30:4
20,32:14
20,33:6
21,7:6
21,10:3
21,19:6
21,22:3
21,27:6
21,32:6
22,7:3
22,19:3
22,32:3
23,4:1
23,5:4
23,7:10
23,10:7
23,14:2
23,15:2
23,18:2
23,19:10
23,21:4
23,22:7
23,25:2
23,27:10
23,29:7
23,32:10
23,33:2
24,4:2
24,5:5
24,7:11
24,10:8
24,14:3
24,15:3
24,18:3
24,19:11
24,21:5
24,22:8
24,23:1
24,25:3
24,27:11
24,29:8
24,30:1
24,32:11
24,33:3
25,5:2
25,7:8
25,10:5
25,19:8
25,21:2
25,22:5
25,27:8
25,29:5
25,32:8
25,36:10
25,37:10
25,41:8
25,48:1
25,50:5
26,4:2
26,5:5
26,7:11
26,10:8
26,14:3
26,15:3
26,18:3
26,19:11
26,21:5
26,22:8
26,23:1
26,25:3
26,27:11
26,30:1
26,32:11
26,33:3
28,1:5
28,4:8
28,5:11
28,6:2
28,7:17
28,9:5
28,10:14
28,11:5
28,12:2
28,13:2
28,14:9
28,15:9
28,16:6
28,17:3
28,18:9
28,19:17
28,20:3
28,21:11
28,22:14
28,23:7
28,24:6
28,25:9
28,26:6
28,27:17
28,29:14
28,30:7
28,34:2
28,36:19
28,37:19
28,41:17
28,44:2
29,7:3
29,19:3
29,27:3
29,32:3
30,4:1
30,5:4
30,7:10
30,10:7
30,14:2
30,15:2
30,18:2
30,19:10
30,21:4
30,22:7
30,25:2
30,27:10
30,29:7
30,32:10
30,33:2
31,1:7
31,2:2
31,4:10
31,5:13
31,6:4
31,7:19
31,9:7
31,10:16
31,11:7
31,12:4
31,13:4
31,14:11
31,15:11
31,16:8
31,17:5
31,18:11
31,19:19
31,20:5
31,21:13
31,22:16
31,23:9
31,24:8
31,25:11
31,26:8
31,27:19
31,28:2
31,29:16
31,30:9
31,32:19
31,33:11
31,34:4
31,44:4
32,36:2
32,37:2
33,5:2
33,7:8
33,10:5
33,19:8
33,21:2
33,22:5
33,27:8
33,29:5
33,32:8
33,36:10
33,37:10
33,41:8
34,1:3
34,4:6
34,5:9
34,7:15
34,9:3
34,10:12
34,11:3
34,14:7
34,15:7
34,16:4
34,17:1
34,18:7
34,19:15
34,20:1
34,21:9
34,22:12
34,23:5
34,24:4
34,25:7
34,26:4
34,27:15
34,29:12
34,30:5
34,32:15
34,33:7
35,1:7
35,2:2
35,4:10
35,5:13
35,6:4
35,7:19
35,9:7
35,10:16
35,11:7
35,12:4
35,13:4
35,14:11
35,15:11
35,16:8
35,17:5
35,18:11
35,19:19
35,20:5
35,21:13
35,22:16
35,23:9
35,24:8
35,25:11
35,26:8
35,27:19
35,28:2
35,29:16
35,30:9
35,32:19
35,33:11
35,34:4
35,36:21
35,37:21
35,41:19
35,44:4
38,1:7
38,2:2
38,4:10
38,5:13
38,6:4
38,7:19
38,9:7
38,10:16
38,11:7
38,12:4
38,13:4
38,14:11
38,15:11
38,16:8
38,17:5
38,18:11
38,19:19
38,20:5
38,21:13
38,22:16
38,23:9
38,24:8
38,25:11
38,26:8
38,27:19
38,28:2
38,29:16
38,30:9
38,32:19
38,33:11
38,34:4
38,36:21
38,37:21
38,41:19
38,43:10
38,44:4
38,45:5
38,48:12
38,49:5
38,50:16
39,1:9
39,2:4
39,4:12
39,5:15
39,6:6
39,7:21
39,9:9
39,10:18
39,11:9
39,12:6
39,13:6
39,14:13
39,15:13
39,16:10
39,17:7
39,18:13
39,19:21
39,20:7
39,21:15
39,22:18
39,23:11
39,24:10
39,25:13
39,26:10
39,27:21
39,28:4
39,29:18
39,30:11
39,31:2
39,32:21
39,33:13
39,34:6
39,35:2
39,36:23
39,37:23
39,38:2
39,41:21
39,44:6
40,1:9
40,2:4
40,4:12
40,5:15
40,6:6
40,7:21
40,9:9
40,10:18
40,11:9
40,12:6
40,13:6
40,14:13
40,15:13
40,16:10
40,17:7
40,18:13
40,19:21
40,20:7
40,21:15
40,22:18
40,23:11
40,24:10
40,25:13
40,26:10
40,27:21
40,28:4
40,29:18
40,30:11
40,31:2
40,32:21
40,33:13
40,34:6
40,35:2
40,36:23
40,37:23
40,38:2
40,41:21
40,44:6
41,36:2
41,37:2
42,1:9
42,2:4
42,4:12
42,5:15
42,6:6
42,7:21
42,9:9
42,10:18
42,11:9
42,12:6
42,13:6
42,14:13
42,15:13
42,16:10
42,17:7
42,18:13
42,19:21
42,20:7
42,21:15
42,22:18
42,23:11
42,24:10
42,25:13
42,26:10
42,27:21
42,28:4
42,29:18
42,30:11
42,31:2
42,32:21
42,33:13
42,34:6
42,35:2
42,36:23
42,37:23
42,38:2
42,41:21
42,44:6
43,5:3
43,7:9
43,10:6
43,14:1
43,15:1
43,18:1
43,19:9
43,21:3
43,22:6
43,25:1
43,27:9
43,29:6
43,32:9
43,33:1
43,36:11
43,37:11
43,41:9
44,1:3
44,4:6
44,5:9
44,7:15
44,9:3
44,10:12
44,11:3
44,14:7
44,15:7
44,16:4
44,17:1
44,18:7
44,19:15
44,20:1
44,21:9
44,22:12
44,23:5
44,24:4
44,25:7
44,26:4
44,27:15
44,29:12
44,30:5
44,32:15
44,33:7
44,36:17
44,37:17
44,41:15
44,43:6
45,1:2
45,4:5
45,5:8
45,7:14
45,9:2
45,10:11
45,11:2
45,14:6
45,15:6
45,16:3
45,18:6
45,19:14
45,21:8
45,22:11
45,23:4
45,24:3
45,25:6
45,26:3
45,27:14
45,29:11
45,30:4
45,32:14
45,33:6
45,36:16
45,37:16
45,41:14
45,43:5
46,1:7
46,2:2
46,4:10
46,5:13
46,6:4
46,7:19
46,9:7
46,10:16
46,11:7
46,12:4
46,13:4
46,14:11
46,15:11
46,16:8
46,17:5
46,18:11
46,19:19
46,20:5
46,21:13
46,22:16
46,23:9
46,24:8
46,25:11
46,26:8
46,27:19
46,28:2
46,29:16
46,30:9
46,32:19
46,33:11
46,34:4
46,36:21
46,37:21
46,41:19
46,43:10
46,44:4
46,45:5
46,48:12
46,49:5
47,1:7
47,2:2
47,4:10
47,5:13
47,6:4
47,7:19
47,9:7
47,10:16
47,11:7
47,12:4
47,13:4
47,14:11
47,15:11
47,16:8
47,17:5
47,18:11
47,19:19
47,20:5
47,21:13
47,22:16
47,23:9
47,24:8
47,25:11
47,26:8
47,27:19
47,28:2
47,29:16
47,30:9
47,32:19
47,33:11
47,34:4
47,36:21
47,37:21
47,41:19
47,43:10
47,44:4
47,45:5
47,48:12
47,49:5
47,50:16
48,5:1
48,7:7
48,10:4
48,19:7
48,21:1
48,22:4
48,27:7
48,29:4
48,32:7
48,36:9
48,37:9
48,41:7
48,50:4
49,1:2
49,4:5
49,5:8
49,7:14
49,9:2
49,10:11
49,11:2
49,14:6
49,15:6
49,16:3
49,18:6
49,19:14
49,21:8
49,22:11
49,23:4
49,24:3
49,25:6
49,26:3
49,27:14
49,29:11
49,30:4
49,32:14
49,33:6
49,36:16
49,37:16
49,41:14
49,43:5
49,48:7
49,50:11
49,54:5
49,55:7
49,56:5
49,57:7
50,7:3
50,19:3
50,27:3
50,32:3
50,36:5
50,37:5
50,41:3
51,1:7
51,2:2
51,4:10
51,5:13
51,6:4
51,7:19
51,9:7
51,10:16
51,11:7
51,12:4
51,13:4
51,14:11
51,15:11
51,16:8
51,17:5
51,18:11
51,19:19
51,20:5
51,21:13
51,22:16
51,23:9
51,24:8
51,25:11
51,26:8
51,27:19
51,28:2
51,29:16
51,30:9
51,32:19
51,33:11
51,34:4
51,36:21
51,37:21
51,41:19
51,43:10
51,44:4
51,45:5
51,48:12
51,49:5
51,50:16
52,1:6
52,2:1
52,4:9
52,5:12
52,6:3
52,7:18
52,9:6
52,10:15
52,11:6
52,12:3
52,13:3
52,14:10
52,15:10
52,16:7
52,17:4
52,18:10
52,19:18
52,20:4
52,21:12
52,22:15
52,23:8
52,24:7
52,25:10
52,26:7
52,27:18
52,28:1
52,29:15
52,30:8
52,32:18
52,33:10
52,34:3
52,36:20
52,37:20
52,41:18
52,43:9
52,44:3
52,45:4
52,48:11
52,49:4
52,50:15
53,1:6
53,2:1
53,4:9
53,5:12
53,6:3
53,7:18
53,9:6
53,10:15
53,11:6
53,12:3
53,13:3
53,14:10
53,15:10
53,16:7
53,17:4
53,18:10
53,19:18
53,20:4
53,21:12
53,22:15
53,23:8
53,24:7
53,25:10
53,26:7
53,27:18
53,28:1
53,29:15
53,30:8
53,32:18
53,33:10
53,34:3
53,36:20
53,37:20
53,41:18
53,43:9
53,44:3
53,45:4
53,48:11
53,49:4
53,50:15
54,5:3
54,7:9
54,10:6
54,14:1
54,15:1
54,18:1
54,19:9
54,21:3
54,22:6
54,25:1
54,27:9
54,29:6
54,32:9
54,33:1
54,36:11
54,37:11
54,41:9
54,48:2
54,50:6
55,5:1
55,7:7
55,10:4
55,19:7
55,21:1
55,22:4
55,27:7
55,29:4
55,32:7
55,36:9
55,37:9
55,41:7
55,50:4
56,5:3
56,7:9
56,10:6
56,14:1
56,15:1
56,18:1
56,19:9
56,21:3
56,22:6
56,25:1
56,27:9
56,29:6
56,32:9
56,33:1
56,36:11
56,37:11
56,41:9
56,48:2
56,50:6
56,55:2
57,5:1
57,7:7
57,10:4
57,19:7
57,21:1
57,22:4
57,27:7
57,29:4
57,32:7
57,36:9
57,37:9
57,41:7
57,50:4
58,5:1
58,7:7
58,10:4
58,19:7
58,21:1
58,22:4
58,27:7
58,29:4
58,32:7
58,36:9
58,37:9
58,41:7
58,50:4

<end>

<optimal SALBP-1 value>
25


<rand seed>
467321153

<Lower Bounds>
Lm1=24
Lms1=24
Lm2=24
Lm3=23
Lm4=24
Best=24

<Optimal Stations (Iterations: 10)>
34
